NAME : N60ft202.dat.11864.tour
COMMENT : Length = 11864
COMMENT : Found by LKH [Keld Helsgaun] Sat Nov 11 16:42:00 2017
TYPE : TOUR
DIMENSION : 60
TOUR_SECTION
1
8
2
35
25
16
24
60
27
5
13
49
19
56
17
31
45
59
21
23
26
6
20
32
54
15
11
3
53
52
44
36
43
9
39
46
4
29
30
42
10
14
58
7
22
57
33
28
40
48
38
41
37
12
51
18
47
50
55
34
-1
EOF
